* ENCODING=ISO-8859-1
NAME          CPLEX
ROWS
 N  obj1    
 G  c1      
 G  c2      
 G  c3      
 G  c4      
 G  c5      
 G  c6      
 G  c7      
 G  c8      
 G  c9      
 G  c10     
 G  c11     
 G  c12     
 G  c13     
 G  c14     
 G  c15     
 G  c16     
 G  c17     
 G  c18     
 G  c19     
 G  c20     
 G  c21     
 G  c22     
 G  c23     
 G  c24     
 G  c25     
 G  c26     
 G  c27     
 G  c28     
 G  c29     
 G  c30     
 G  c31     
 G  c32     
 G  c33     
 G  c34     
 G  c35     
COLUMNS
    MARK0000  'MARKER'                 'INTORG'
    x1        obj1                            1
    x1        c3                            638
    x1        c10                           433
    x1        c11                           188
    x1        c28                           632
    x1        c32                           528
    x2        obj1                            1
    x2        c2                            338
    x2        c4                            462
    x2        c11                           213
    x3        obj1                            1
    x3        c9                            349
    x3        c18                           138
    x3        c24                           285
    x4        obj1                            1
    x4        c16                           524
    x4        c23                           319
    x4        c25                           998
    x5        obj1                            1
    x5        c12                           983
    x5        c14                           934
    x5        c32                           275
    x5        c33                           384
    x6        obj1                            1
    x6        c3                            106
    x6        c4                            489
    x6        c7                            479
    x6        c9                            410
    x6        c15                           824
    x6        c26                           198
    x6        c35                           917
    x7        obj1                            1
    x7        c1                            262
    x7        c18                           400
    x7        c24                           384
    x7        c27                           804
    x7        c31                           663
    x8        obj1                            1
    x8        c30                           741
    x9        obj1                            1
    x9        c13                           262
    x9        c19                           131
    x10       obj1                            1
    x10       c5                            551
    x10       c14                           348
    x10       c29                           859
    x11       obj1                            1
    x11       c17                           458
    x11       c22                           622
    x11       c25                           851
    x11       c26                           567
    x12       obj1                            1
    x12       c1                            591
    x12       c15                           360
    x12       c18                           253
    x12       c19                           277
    x12       c21                           569
    x13       obj1                            1
    x13       c2                            411
    x13       c18                           477
    x13       c31                           404
    x14       obj1                            1
    x14       c6                            376
    x14       c14                           236
    x14       c16                           302
    x15       obj1                            1
    x15       c2                            979
    x15       c3                            664
    x15       c11                           867
    x16       obj1                            1
    x16       c7                            595
    x16       c10                           160
    x16       c11                           457
    x16       c13                           577
    x16       c16                           367
    x16       c23                           321
    x16       c32                           643
    x17       obj1                            1
    x17       c7                            893
    x17       c25                           670
    x17       c32                           563
    x18       obj1                            1
    x18       c15                           890
    x18       c29                           709
    x19       obj1                            1
    x19       c3                            754
    x19       c10                           196
    x19       c17                           691
    x20       obj1                            1
    x20       c3                            822
    x20       c15                           101
    x20       c17                           738
    x20       c19                           851
    x20       c21                           321
    x20       c32                           258
    x20       c35                           383
    x21       obj1                            1
    x21       c13                           744
    x21       c15                           553
    x21       c18                           899
    x21       c29                           416
    x22       obj1                            1
    x22       c2                            869
    x22       c9                            398
    x22       c14                           462
    x23       obj1                            1
    x23       c17                           583
    x23       c30                           344
    x23       c35                           590
    x24       obj1                            1
    x24       c15                           830
    x24       c32                           288
    x24       c34                           195
    x25       obj1                            1
    x25       c4                            200
    x25       c18                           384
    x25       c26                           513
    x25       c27                           267
    x25       c34                           945
    x25       c35                           196
    x26       obj1                            1
    x27       obj1                            1
    x27       c6                            317
    x27       c14                           615
    x27       c24                           188
    x28       obj1                            1
    x28       c8                            780
    x28       c17                           197
    x28       c25                           876
    x29       obj1                            1
    x29       c8                            392
    x29       c9                            815
    x29       c21                           727
    x29       c25                           680
    x30       obj1                            1
    x30       c9                            910
    x30       c12                           542
    x30       c27                           131
    x31       obj1                            1
    x31       c8                            925
    x31       c11                           466
    x31       c31                           309
    x32       obj1                            1
    x32       c5                            275
    x32       c8                            396
    x32       c10                           918
    x32       c28                           712
    x32       c34                           467
    x33       obj1                            1
    x33       c27                           825
    x33       c29                           627
    x34       obj1                            1
    x34       c2                            600
    x34       c20                           701
    x35       obj1                            1
    x36       obj1                            1
    x36       c3                            993
    x36       c5                            758
    x36       c10                           617
    x36       c25                           159
    x36       c35                           674
    x37       obj1                            1
    x37       c1                            179
    x37       c2                            289
    x37       c11                           732
    x37       c13                           157
    x37       c14                           544
    x37       c18                           946
    x37       c22                           289
    x38       obj1                            1
    x38       c4                            508
    x38       c14                           151
    x38       c20                           496
    x39       obj1                            1
    x39       c1                            713
    x39       c3                            978
    x39       c4                            806
    x39       c10                           716
    x39       c11                           673
    x39       c26                           950
    x40       obj1                            1
    x40       c20                           639
    x40       c21                           585
    x40       c24                           761
    x41       obj1                            1
    x41       c6                            793
    x41       c15                           903
    x41       c21                           115
    x41       c24                           499
    x41       c34                           536
    x41       c35                           682
    x42       obj1                            1
    x42       c6                            373
    x42       c14                           153
    x42       c15                           482
    x42       c26                           377
    x43       obj1                            1
    x43       c18                           607
    x43       c21                           765
    x43       c27                           751
    x43       c35                           877
    x44       obj1                            1
    x44       c13                           586
    x45       obj1                            1
    x45       c14                           682
    x45       c19                           463
    x45       c24                           450
    x46       obj1                            1
    x46       c5                            399
    x46       c7                            799
    x46       c9                            519
    x46       c15                           218
    x46       c33                           782
    x47       obj1                            1
    x47       c9                            842
    x47       c17                           897
    x47       c23                           908
    x47       c32                           278
    x48       obj1                            1
    x48       c1                            170
    x48       c7                            309
    x48       c11                           182
    x48       c12                           780
    x49       obj1                            1
    x49       c3                            459
    x49       c10                           861
    x49       c16                           628
    x50       obj1                            1
    x50       c1                            338
    x50       c30                           180
    x50       c34                           268
    x51       obj1                            1
    x51       c7                            166
    x51       c9                            712
    x51       c15                           184
    x51       c17                           176
    x52       obj1                            1
    x52       c23                           819
    x53       obj1                            1
    x53       c9                            492
    x53       c30                           291
    x54       obj1                            1
    x54       c22                           736
    x54       c34                           364
    x55       obj1                            1
    x55       c22                           972
    x56       obj1                            1
    x56       c6                            574
    x56       c17                           716
    x56       c27                           583
    x56       c35                           208
    x57       obj1                            1
    x57       c16                           951
    x57       c17                           343
    x57       c34                           366
    x58       obj1                            1
    x58       c4                            605
    x58       c13                           102
    x59       obj1                            1
    x59       c2                            121
    x59       c16                           288
    x59       c19                           826
    x59       c21                           812
    x59       c26                           300
    x60       obj1                            1
    x60       c2                            305
    x60       c4                            385
    x60       c18                           233
    x60       c22                           155
    x60       c23                           141
    x60       c25                           357
    x60       c29                           118
    x60       c35                           142
    x61       obj1                            1
    x61       c17                           639
    x61       c20                           968
    x61       c21                           976
    x61       c28                           840
    x62       obj1                            1
    x62       c6                            838
    x62       c11                           616
    x62       c12                           271
    x62       c14                           349
    x62       c21                           660
    x62       c30                           786
    x63       obj1                            1
    x63       c18                           588
    x63       c19                           500
    x64       obj1                            1
    x64       c8                            929
    x64       c16                           179
    x64       c23                           412
    x64       c24                           499
    x64       c28                           347
    x65       obj1                            1
    x65       c1                            276
    x65       c27                           468
    x65       c30                           431
    x66       obj1                            1
    x66       c4                            945
    x66       c6                            384
    x66       c8                            592
    x66       c12                           877
    x66       c26                           857
    x66       c31                           154
    x67       obj1                            1
    x67       c2                            829
    x67       c29                           625
    x68       obj1                            1
    x68       c7                            850
    x68       c20                           434
    x69       obj1                            1
    x69       c9                            348
    x69       c11                           491
    x69       c23                           961
    x69       c25                           433
    x69       c33                           148
    x69       c34                           258
    x70       obj1                            1
    x70       c1                            422
    x70       c2                            157
    x70       c25                           429
    x70       c26                           156
    x70       c33                           837
    MARK0001  'MARKER'                 'INTEND'
RHS
    rhs       c1                           1476
    rhs       c2                           2449
    rhs       c3                           2707
    rhs       c4                           2200
    rhs       c5                            992
    rhs       c6                           1828
    rhs       c7                           2046
    rhs       c8                           2007
    rhs       c9                           2898
    rhs       c10                          1951
    rhs       c11                          2443
    rhs       c12                          1727
    rhs       c13                          1214
    rhs       c14                          2237
    rhs       c15                          2673
    rhs       c16                          1620
    rhs       c17                          2719
    rhs       c18                          2463
    rhs       c19                          1524
    rhs       c20                          1619
    rhs       c21                          2765
    rhs       c22                          1387
    rhs       c23                          1941
    rhs       c24                          1533
    rhs       c25                          2727
    rhs       c26                          1959
    rhs       c27                          1915
    rhs       c28                          1266
    rhs       c29                          1677
    rhs       c30                          1387
    rhs       c31                           765
    rhs       c32                          1417
    rhs       c33                          1076
    rhs       c34                          1700
    rhs       c35                          2335
BOUNDS
 LI bnd       x1        0
 LI bnd       x2        0
 LI bnd       x3        0
 LI bnd       x4        0
 LI bnd       x5        0
 LI bnd       x6        0
 LI bnd       x7        0
 LI bnd       x8        0
 LI bnd       x9        0
 LI bnd       x10       0
 LI bnd       x11       0
 LI bnd       x12       0
 LI bnd       x13       0
 LI bnd       x14       0
 LI bnd       x15       0
 LI bnd       x16       0
 LI bnd       x17       0
 LI bnd       x18       0
 LI bnd       x19       0
 LI bnd       x20       0
 LI bnd       x21       0
 LI bnd       x22       0
 LI bnd       x23       0
 LI bnd       x24       0
 LI bnd       x25       0
 LI bnd       x26       0
 LI bnd       x27       0
 LI bnd       x28       0
 LI bnd       x29       0
 LI bnd       x30       0
 LI bnd       x31       0
 LI bnd       x32       0
 LI bnd       x33       0
 LI bnd       x34       0
 LI bnd       x35       0
 LI bnd       x36       0
 LI bnd       x37       0
 LI bnd       x38       0
 LI bnd       x39       0
 LI bnd       x40       0
 LI bnd       x41       0
 LI bnd       x42       0
 LI bnd       x43       0
 LI bnd       x44       0
 LI bnd       x45       0
 LI bnd       x46       0
 LI bnd       x47       0
 LI bnd       x48       0
 LI bnd       x49       0
 LI bnd       x50       0
 LI bnd       x51       0
 LI bnd       x52       0
 LI bnd       x53       0
 LI bnd       x54       0
 LI bnd       x55       0
 LI bnd       x56       0
 LI bnd       x57       0
 LI bnd       x58       0
 LI bnd       x59       0
 LI bnd       x60       0
 LI bnd       x61       0
 LI bnd       x62       0
 LI bnd       x63       0
 LI bnd       x64       0
 LI bnd       x65       0
 LI bnd       x66       0
 LI bnd       x67       0
 LI bnd       x68       0
 LI bnd       x69       0
 LI bnd       x70       0
ENDATA
